param airplane_cost:= 10;
param ground_cost:=0.5;
param number_locations:=3;
param budget_limit := 60000;
param medicine_cost:=5;

param location_distance:=
1 500
2 800
3 700;

param location_population:=
1 80
2 60
3 70;


